10	5
0	3	2	1	3
1	0
2	2	6	8
3	1	5
4	1	9
5	1	6
6	1	7
7	1	10
8	1	4
9	1	11
10	1	11
11	0
0	0	0	0	0	0	0
1	9	2	5	3	5	3
2	8	3	1	4	1	2
3	7	2	2	3	1	2
4	2	1	4	3	5	5
5	5	4	1	2	5	5
6	9	2	3	2	5	3
7	3	3	4	1	3	5
8	3	3	1	5	5	1
9	8	3	4	5	1	5
10	8	5	1	2	4	3
11	0	0	0	0	0	0
5	5	5	5	5
